Route #1: 9 62 61 30 57 3
Route #2: 60 64 40 34 6 36 42 44
Route #3: 53 39 4 14 50 46
Route #4: 11 35 49 1 19 20
Route #5: 17 38 7 10 27 43 16
Route #6: 41 29 24 59 8 23
Route #7: 66 51 32 37 65 2 26
Route #8: 47 33 18 31 45 52 22
Route #9: 12 58 15 13 28
Route #10: 5 56 55 54 21 25 48 63
Cost 1115